; benchmark generated from python API
(set-info :status unknown)
(declare-datatypes ((RealState 0)) (((RMk1 (rval1 Real)) (RMk2 (rval2 Real)))))
 (assert
 (forall ((|v9:0| Real) )(exists ((|v8:1_st| RealState) (val!705 Real) )(forall ((|v7:2| Real) )(exists ((|v6:3_st| RealState) (val!706 Real) )(forall ((|v5:4| Real) )(exists ((|v4:5_st| RealState) (val!707 Real) )(forall ((|v3:6| Real) )(exists ((|v2:7_st| RealState) (val!708 Real) )(forall ((|v1:8| Real) )(exists ((|v0:9_st| RealState) (val!709 Real) )(let (($x684 (<= (+ (+ (* 8.0 |v3:6|) (* (- 16.0) |v1:8|)) (rval2 |v2:7_st|)) 19.0)))
 (let ((?x1034 (- 5.0)))
 (let ((?x1318 (- 15.0)))
 (let ((?x797 (* ?x1318 |v3:6|)))
 (let ((?x156 (+ (+ (* (- 16.0) (rval2 |v2:7_st|)) (* (- 8.0) (rval2 |v2:7_st|))) ?x797)))
 (let ((?x758 (+ (+ (* (- 3.0) |v9:0|) (* (- 18.0) |v9:0|)) (* ?x1318 (rval2 |v2:7_st|)))))
 (let (($x799 (<= (+ (+ (* 12.0 (rval2 |v2:7_st|)) (* (- 17.0) |v3:6|)) (* 19.0 |v7:2|)) 9.0)))
 (let ((?x297 (- 6.0)))
 (let (($x941 (<= (+ (+ (* 15.0 (rval2 |v0:9_st|)) (* ?x297 |v1:8|)) (* 17.0 |v9:0|)) ?x297)))
 (let ((?x78 (- 20.0)))
 (let (($x1275 (<= (+ (+ (* 12.0 |v9:0|) (* ?x78 |v9:0|)) (* (- 18.0) |v9:0|)) ?x78)))
 (let ((?x621 (+ (+ (* (- 1.0) |v5:4|) (* (- 13.0) |v3:6|)) (* ?x297 (rval2 |v4:5_st|)))))
 (let ((?x94 (- 11.0)))
 (let ((?x1271 (+ (+ (* (- 17.0) |v5:4|) (* 15.0 |v7:2|)) (* (- 7.0) (rval2 |v4:5_st|)))))
 (let (($x1171 (or (and (or (<= ?x1271 ?x94) (<= ?x621 ?x1318)) (and $x1275 $x941)) (or (and $x799 (<= ?x758 7.0)) (and (<= ?x156 ?x1034) $x684)))))
 (let ((?x1123 (- 12.0)))
 (let (($x1188 (<= (+ (+ (* ?x297 |v1:8|) (* ?x78 (rval2 |v2:7_st|))) (* 9.0 (rval2 |v8:1_st|))) ?x1123)))
 (let (($x301 (<= (+ (+ (* 16.0 |v3:6|) (* 13.0 (rval2 |v2:7_st|))) (* 10.0 |v7:2|)) 14.0)))
 (let ((?x50 (- 4.0)))
 (let ((?x662 (+ (+ (* (- 2.0) |v5:4|) (* 19.0 (rval2 |v0:9_st|))) (* (- 10.0) (rval2 |v4:5_st|)))))
 (let ((?x1112 (- 18.0)))
 (let (($x147 (<= (+ (+ (* 6.0 (rval2 |v8:1_st|)) (rval2 |v4:5_st|)) (* ?x1123 (rval2 |v0:9_st|))) ?x1112)))
 (let ((?x502 (- 13.0)))
 (let ((?x664 (* 19.0 |v7:2|)))
 (let (($x150 (<= (+ (+ (* 15.0 (rval2 |v0:9_st|)) (* ?x1112 (rval2 |v4:5_st|))) ?x664) ?x502)))
 (let ((?x904 (- 2.0)))
 (let ((?x82 (rval2 |v2:7_st|)))
 (let ((?x1158 (* 4.0 ?x82)))
 (let (($x1075 (and (<= (+ (+ (* 20.0 (rval2 |v6:3_st|)) (* (- 8.0) |v7:2|)) ?x1158) ?x904) $x150)))
 (let ((?x465 (- 16.0)))
 (let (($x1332 (<= (+ (+ (* ?x904 ?x82) (* 8.0 (rval2 |v6:3_st|))) (* ?x94 |v7:2|)) ?x465)))
 (let (($x319 (<= (+ (+ (* ?x502 |v9:0|) (* 8.0 |v1:8|)) (* 7.0 (rval2 |v0:9_st|))) ?x1318)))
 (let (($x218 (<= (+ (+ (* 7.0 ?x82) (* (- 19.0) |v3:6|)) (* 6.0 (rval2 |v8:1_st|))) 14.0)))
 (let ((?x1078 (- 10.0)))
 (let ((?x207 (rval2 |v8:1_st|)))
 (let ((?x185 (* 7.0 ?x207)))
 (let (($x877 (or (<= (+ (+ (* 3.0 |v5:4|) (* 12.0 (rval2 |v6:3_st|))) ?x185) ?x1078) $x218)))
 (let ((?x250 (+ (+ (* (- 1.0) (rval2 |v0:9_st|)) (* 17.0 (rval2 |v6:3_st|))) (* ?x94 ?x207))))
 (let (($x685 (<= (+ (+ (* 17.0 |v5:4|) (* 12.0 |v1:8|)) (* 17.0 (rval2 |v6:3_st|))) 8.0)))
 (let (($x1163 (<= (+ (+ (* 8.0 |v7:2|) (* (- 7.0) (rval2 |v6:3_st|))) (* ?x465 |v5:4|)) 9.0)))
 (let (($x145 (or (<= (+ (+ (* ?x1318 (rval2 |v6:3_st|)) ?x797) (* 9.0 |v3:6|)) (- 8.0)) $x1163)))
 (let (($x642 (<= (+ (+ (* 16.0 (rval2 |v4:5_st|)) (* ?x297 (rval2 |v0:9_st|))) (* ?x1034 ?x82)) 8.0)))
 (let (($x573 (or (<= (+ (+ (* 5.0 |v5:4|) (* ?x1078 |v1:8|)) (* ?x1078 ?x207)) ?x904) $x642)))
 (let (($x592 (<= (+ (+ (* ?x502 |v3:6|) (* 13.0 (rval2 |v4:5_st|))) (* (- 19.0) |v7:2|)) ?x50)))
 (let ((?x1206 (+ (+ (* 0.0 (rval2 |v6:3_st|)) (* 20.0 |v7:2|)) (* ?x465 (rval2 |v6:3_st|)))))
 (let (($x657 (or (and (or (<= ?x1206 14.0) $x592) $x573) (or $x145 (or $x685 (<= ?x250 0.0))))))
 (let (($x175 (or $x657 (or (or $x877 (and $x319 $x1332)) (and $x1075 (or $x147 (<= ?x662 ?x50)))))))
 (let (($x945 (not (= |v0:9_st| (RMk1 val!709)))))
 (let (($x729 (not (= |v2:7_st| (RMk1 val!708)))))
 (let (($x655 (not (= |v4:5_st| (RMk1 val!707)))))
 (let (($x501 (not (= |v6:3_st| (RMk1 val!706)))))
 (let (($x699 (not (= |v8:1_st| (RMk1 val!705)))))
 (and $x699 $x501 $x655 $x729 $x945 (and $x175 (or (or $x301 $x1188) $x1171))))))))))))))))))))))))))))))))))))))))))))))))))))))))
 )
 )
 )
 )
 )
 )
 )
 )
 )
 )
(check-sat)
